************************************************************************
file with basedata            : n/a
initial value random generator: n/a
************************************************************************
projects                      :  1
jobs (incl. supersource/sink ):  122
horizon                       :  620
RESOURCES
  - renewable                 :  4   R
  - nonrenewable              :  0   N
  - doubly constrained        :  0   D
************************************************************************
PROJECT INFORMATION:
pronr.  #jobs rel.date duedate tardcost  MPM-Time
    1    120      0       88      115       88
************************************************************************
PRECEDENCE RELATIONS:
jobnr.    #modes  #successors   successors
   1        1          3           2   3   4
   2        1          3           8  24  27
   3        1          3          10  14  50
   4        1          3           5  13  26
   5        1          3           6   7  22
   6        1          3           9  15  16
   7        1          1          19
   8        1          3          17  18  21
   9        1          3          11  25  37
  10        1          3          12  40  92
  11        1          3          20  29  31
  12        1          1          36
  13        1          2          30  95
  14        1          3          35  49  61
  15        1          3          47  55  58
  16        1          3          32  88  97
  17        1          1         103
  18        1          1          34
  19        1          1          28
  20        1          2          23  46
  21        1          3          38  48  78
  22        1          3          30  36  79
  23        1          1          98
  24        1          2          33 121
  25        1          1          45
  26        1          1          96
  27        1          2          42  69
  28        1          1          53
  29        1          1          68
  30        1          1          54
  31        1          2          68  89
  32        1          1          90
  33        1          2          86 102
  34        1          3          65  85  95
  35        1          2          41  59
  36        1          3          39  44  72
  37        1          1         118
  38        1          3          43  51  71
  39        1          1          82
  40        1          2          93 100
  41        1          2          63  67
  42        1          1         106
  43        1          1         115
  44        1          3          52  76 112
  45        1          1          89
  46        1          1          56
  47        1          2          80 107
  48        1          2          67  74
  49        1          1          66
  50        1          1         117
  51        1          2          64  75
  52        1          3          62  73  84
  53        1          1          81
  54        1          1          57
  55        1          1         104
  56        1          1          60
  57        1          1         114
  58        1          1         116
  59        1          1          89
  60        1          1         113
  61        1          1         110
  62        1          1          77
  63        1          1         101
  64        1          1         109
  65        1          2          91 111
  66        1          2          70 102
  67        1          1          82
  68        1          1          81
  69        1          1          90
  70        1          2          74  93
  71        1          1          83
  72        1          1         104
  73        1          1          78
  74        1          1          77
  75        1          1         113
  76        1          1         119
  77        1          1          87
  78        1          1          86
  79        1          1          94
  80        1          2          83 109
  81        1          3          91 101 111
  82        1          2         100 109
  83        1          1          91
  84        1          1          94
  85        1          1         110
  86        1          1          93
  87        1          1         119
  88        1          1         110
  89        1          1         114
  90        1          1          96
  91        1          1          98
  92        1          1         116
  93        1          1         106
  94        1          1          99
  95        1          1         103
  96        1          1         105
  97        1          1         108
  98        1          1         120
  99        1          2         100 102
 100        1          1         104
 101        1          1         105
 102        1          1         106
 103        1          2         107 112
 104        1          1         118
 105        1          1         113
 106        1          1         111
 107        1          1         120
 108        1          1         116
 109        1          1         115
 110        1          1         112
 111        1          1         117
 112        1          2         114 119
 113        1          1         121
 114        1          1         115
 115        1          1         117
 116        1          1         118
 117        1          1         120
 118        1          1         121
 119        1          1         122
 120        1          1         122
 121        1          1         122
 122        1          0        
************************************************************************
REQUESTS/DURATIONS:
jobnr. mode duration  R 1  R 2  R 3  R 4
------------------------------------------------------------------------
  1      1     0    
  2      1     4       6   6   6   6
                       6   6   6   6
                       0   0   0   0
                       3   3   3   3
  3      1     2       0   0
                       2   2
                       6   6
                       0   0
  4      1     8       0   0   0   0   0   0   0   0
                       0   1   1   1   0   1   1   1
                       0   0   0   0   0   0   0   0
                       0   5   5   5   0   5   5   5
  5      1     4       0   0   0   0
                       0   0   0   0
                       8   8   8   8
                       2   2   2   2
  6      1    10       0   0   0   0   0   0   0   0   0   0
                       0   0   0   0   0   0   0   0   0   0
                       8   8   8   8   8   8   8   8   8   8
                       0   0   0   0   0   0   0   0   0   0
  7      1     2       2   2
                       0   0
                       0   0
                       1   1
  8      1    10      10  10  10  10  10  10   0  10  10   0
                       0   0   0   0   0   0   0   0   0   0
                       7   7   7   7   7   7   0   7   7   0
                       0   0   0   0   0   0   0   0   0   0
  9      1     6       0   0   0   0   0   0
                       0   0   0   0   0   0
                       8   8   8   8   8   8
                       5   5   5   5   5   5
 10      1     4       7   7   7   7
                       6   6   6   6
                       0   0   0   0
                       0   0   0   0
 11      1     5       3   3   3   3   3
                       0   0   0   0   0
                       0   0   0   0   0
                       1   1   1   1   1
 12      1     2       0   0
                       0   0
                       0   0
                       3   3
 13      1     6       0   0   0   0   0   0
                       0   0   0   0   0   0
                       1   1   1   1   1   1
                       0   0   0   0   0   0
 14      1     3       1   1   1
                       0   0   0
                       0   0   0
                       4   4   4
 15      1     5       2   2   2   2   2
                       0   0   0   0   0
                       5   5   5   5   5
                       0   0   0   0   0
 16      1    10       0   0   0   0   0   0   0   0   0   0
                       1   1   1   1   1   1   1   1   1   1
                       1   1   1   1   1   1   1   1   1   1
                       6   6   6   6   6   6   6   6   6   6
 17      1     6       0   0   0   0   0   0
                       3   3   3   3   3   3
                       0   0   0   0   0   0
                       0   0   0   0   0   0
 18      1    10       0   0   0   0   0   0   0   0   0   0
                       4   0   4   4   4   4   0   4   4   4
                       5   0   5   5   5   5   0   5   5   5
                       5   0   5   5   5   5   0   5   5   5
 19      1     3      10  10  10
                       0   0   0
                       1   1   1
                       0   0   0
 20      1     3       5   5   5
                       2   2   2
                       9   9   9
                       0   0   0
 21      1    10       0   0   0   0   0   0   0   0   0   0
                       0   0   0   0   0   0   0   0   0   0
                       0   0   0   0   0   0   0   0   0   0
                       2   2   2   2   2   2   2   2   2   2
 22      1     5       7   7   7   7   7
                       0   0   0   0   0
                       0   0   0   0   0
                      10  10  10  10  10
 23      1     4       0   0   0   0
                       0   0   0   0
                       0   0   0   0
                       7   7   7   7
 24      1     2       0   0
                       6   6
                       4   4
                       8   8
 25      1     1       8
                       0
                       0
                       2
 26      1     2       0   0
                       3   3
                       0   0
                       8   8
 27      1     7       0   0   0   0   0   0   0
                       9   9   9   9   9   9   9
                       3   3   3   3   3   3   3
                      10  10  10  10  10  10  10
 28      1     1       0
                       0
                       0
                       0
 29      1     8       1   1   0   1   1   1   1   1
                       0   0   0   0   0   0   0   0
                      10  10   0  10  10  10  10  10
                       0   0   0   0   0   0   0   0
 30      1     6       0   0   0   0   0   0
                       0   0   0   0   0   0
                       0   0   0   0   0   0
                       8   8   8   8   8   8
 31      1    10       0   0   0   0   0   0   0   0   0   0
                       9   9   9   9   9   9   9   9   9   9
                       0   0   0   0   0   0   0   0   0   0
                       4   4   4   4   4   4   4   4   4   4
 32      1    10       0   0   0   0   0   0   0   0   0   0
                       6   6   6   6   6   6   6   6   6   6
                      10  10  10  10  10  10  10  10  10  10
                       0   0   0   0   0   0   0   0   0   0
 33      1     4       8   8   8   8
                       0   0   0   0
                       0   0   0   0
                       6   6   6   6
 34      1     2       2   2
                       0   0
                       8   8
                       0   0
 35      1    10       8   8   8   8   8   8   8   8   8   8
                       0   0   0   0   0   0   0   0   0   0
                       0   0   0   0   0   0   0   0   0   0
                       7   7   7   7   7   7   7   7   7   7
 36      1    10       0   0   0   0   0   0   0   0   0   0
                      10  10  10  10  10  10  10  10   0  10
                      10  10  10  10  10  10  10  10   0  10
                       5   5   5   5   5   5   5   5   0   5
 37      1     4       0   0   0   0
                       6   6   0   6
                       5   5   0   5
                       0   0   0   0
 38      1     9       0   0   0   0   0   0   0   0   0
                       0   0   0   0   0   0   0   0   0
                       0   0   0   0   0   0   0   0   0
                       1   1   1   1   1   1   1   1   1
 39      1     1       3
                       0
                       0
                       3
 40      1     6       0   0   0   0   0   0
                       1   1   1   1   1   1
                       0   0   0   0   0   0
                       0   0   0   0   0   0
 41      1     1       9
                       0
                       0
                       0
 42      1     9      10  10  10  10  10  10  10  10   0
                       0   0   0   0   0   0   0   0   0
                       8   8   8   8   8   8   8   8   0
                       0   0   0   0   0   0   0   0   0
 43      1     1       0
                       2
                       0
                       0
 44      1     5       0   0   0   0   0
                       0   0   0   0   0
                       0   0   0   0   0
                       9   9   9   9   0
 45      1     5       0   0   0   0   0
                       2   2   2   2   2
                       8   8   8   8   8
                       6   6   6   6   6
 46      1     5       7   7   7   7   7
                       0   0   0   0   0
                       6   6   6   6   6
                       9   9   9   9   9
 47      1     8       5   5   5   5   5   5   5   5
                       0   0   0   0   0   0   0   0
                       0   0   0   0   0   0   0   0
                       0   0   0   0   0   0   0   0
 48      1     2       0   0
                       0   0
                       0   0
                       3   3
 49      1     5       9   9   9   9   9
                       0   0   0   0   0
                       1   1   1   1   1
                       0   0   0   0   0
 50      1     1       0
                       4
                       0
                       0
 51      1    10      10  10  10  10  10  10  10   0  10  10
                       5   5   5   5   5   5   5   0   5   5
                       5   5   5   5   5   5   5   0   5   5
                       0   0   0   0   0   0   0   0   0   0
 52      1     2       6   6
                       1   1
                       0   0
                       0   0
 53      1     5       0   0   0   0   0
                       5   5   5   5   5
                       6   6   6   6   6
                       0   0   0   0   0
 54      1     5       9   9   9   9   9
                       8   8   8   8   8
                       0   0   0   0   0
                       0   0   0   0   0
 55      1     4       5   5   5   5
                       0   0   0   0
                       0   0   0   0
                       0   0   0   0
 56      1     6       0   0   0   0   0   0
                       2   2   2   0   2   2
                       8   8   8   0   8   8
                       4   4   4   0   4   4
 57      1     2       0   0
                       0   0
                       0   6
                       0   5
 58      1     7       1   1   1   1   0   1   1
                       0   0   0   0   0   0   0
                       7   7   7   7   0   7   7
                       0   0   0   0   0   0   0
 59      1     9       0   0   0   0   0   0   0   0   0
                       8   8   8   8   8   8   8   8   8
                       6   6   6   6   6   6   6   6   6
                       0   0   0   0   0   0   0   0   0
 60      1     9       0   0   0   0   0   0   0   0   0
                       4   4   4   4   4   0   4   4   4
                       0   0   0   0   0   0   0   0   0
                       0   0   0   0   0   0   0   0   0
 61      1     1       8
                       0
                       0
                       1
 62      1    10       0   0   0   0   0   0   0   0   0   0
                       0   0   0   0   0   0   0   0   0   0
                       2   2   2   2   2   2   2   2   2   2
                       0   0   0   0   0   0   0   0   0   0
 63      1     6       5   5   5   5   5   5
                       9   9   9   9   9   9
                       8   8   8   8   8   8
                       0   0   0   0   0   0
 64      1     1       7
                       2
                       6
                       0
 65      1     2       0   0
                       7   7
                       0   0
                       0   0
 66      1     8       0   0   0   0   0   0   0   0
                       2   2   2   2   2   2   2   2
                      10  10  10  10  10  10  10  10
                       0   0   0   0   0   0   0   0
 67      1     4       5   5   5   5
                       1   1   1   1
                      10  10  10  10
                       0   0   0   0
 68      1     8       3   3   3   3   3   3   3   3
                       9   9   9   9   9   9   9   9
                       2   2   2   2   2   2   2   2
                       6   6   6   6   6   6   6   6
 69      1    10       3   3   3   3   0   3   3   3   3   3
                       0   0   0   0   0   0   0   0   0   0
                      10  10  10  10   0  10  10  10  10  10
                       0   0   0   0   0   0   0   0   0   0
 70      1     6       4   4   4   4   4   4
                       0   0   0   0   0   0
                       1   1   1   1   1   1
                       4   4   4   4   4   4
 71      1     1       0
                       5
                      10
                       0
 72      1     5       0   0   0   0   0
                       0   0   0   0   0
                       0   0   0   0   0
                       6   6   6   6   6
 73      1     8       8   8   8   8   8   8   8   8
                       6   6   6   6   6   6   6   6
                       3   3   3   3   3   3   3   3
                       5   5   5   5   5   5   5   5
 74      1     5       2   2   2   2   2
                       0   0   0   0   0
                       0   0   0   0   0
                       0   0   0   0   0
 75      1     4       6   6   6   6
                       3   3   3   3
                       0   0   0   0
                       3   3   3   3
 76      1     9       5   5   0   5   5   5   5   5   5
                       0   0   0   0   0   0   0   0   0
                       4   4   0   4   4   4   4   4   4
                       5   5   0   5   5   5   5   5   5
 77      1     1       7
                       7
                       0
                       2
 78      1     6       0   0   0   0   0   0
                       0   0   0   0   0   0
                       5   5   5   5   5   5
                       2   2   2   2   2   2
 79      1     2       0   0
                       7   7
                       8   8
                       0   0
 80      1    10       5   5   5   5   5   5   5   5   5   5
                       0   0   0   0   0   0   0   0   0   0
                       5   5   5   5   5   5   5   5   5   5
                       8   8   8   8   8   8   8   8   8   8
 81      1     2       4   4
                       4   4
                       0   0
                       0   0
 82      1     3       0   0   0
                       0   0   0
                       0   0   0
                       2   2   2
 83      1     8       0   0   0   0   0   0   0   0
                       0   0   0   0   0   0   0   0
                       6   6   0   6   6   6   6   6
                       0   0   0   0   0   0   0   0
 84      1     5       0   0   0   0   0
                       3   3   3   3   0
                       0   0   0   0   0
                       0   0   0   0   0
 85      1     2      10  10
                       0   0
                       0   0
                       0   0
 86      1    10       9   9   9   9   9   9   0   9   9   9
                      10  10  10  10  10  10   0  10  10  10
                       0   0   0   0   0   0   0   0   0   0
                       0   0   0   0   0   0   0   0   0   0
 87      1    10       0   0   0   0   0   0   0   0   0   0
                       3   3   3   3   3   3   3   3   3   3
                       0   0   0   0   0   0   0   0   0   0
                       0   0   0   0   0   0   0   0   0   0
 88      1     5       5   5   5   5   5
                       0   0   0   0   0
                       7   7   7   7   7
                       0   0   0   0   0
 89      1     9       0   0   0   0   0   0   0   0   0
                       8   8   8   8   8   8   8   8   8
                       0   0   0   0   0   0   0   0   0
                       0   0   0   0   0   0   0   0   0
 90      1     6       0   0   0   0   0   0
                       1   1   1   1   1   1
                       5   5   5   5   5   5
                       1   1   1   1   1   1
 91      1     3       5   5   5
                       4   4   4
                       5   5   5
                       7   7   7
 92      1     1       0
                       0
                       8
                       0
 93      1     3       3   3   3
                       3   3   3
                       0   0   0
                       4   4   4
 94      1     2       0   0
                       0   8
                       0   8
                       0   0
 95      1     4       8   8   8   8
                       0   0   0   0
                       0   0   0   0
                       0   0   0   0
 96      1     5       1   1   1   1   1
                       0   0   0   0   0
                       8   8   8   8   8
                       0   0   0   0   0
 97      1     3       5   5   5
                       0   0   0
                       0   0   0
                       2   2   2
 98      1     2       4   4
                       0   0
                       0   0
                       0   0
 99      1    10       0   0   0   0   0   0   0   0   0   0
                       4   4   4   4   4   4   4   4   4   4
                       0   0   0   0   0   0   0   0   0   0
                       0   0   0   0   0   0   0   0   0   0
100      1     8       1   1   1   1   1   1   1   1
                       0   0   0   0   0   0   0   0
                       0   0   0   0   0   0   0   0
                       0   0   0   0   0   0   0   0
101      1     5       1   1   1   1   1
                       9   9   9   9   9
                       0   0   0   0   0
                       3   3   3   3   3
102      1     1       0
                       0
                       5
                       0
103      1     2       0   0
                       0   3
                       0   0
                       0   0
104      1     4       0   0   0   0
                       8   8   8   8
                       5   5   5   5
                       0   0   0   0
105      1     3       0   0   0
                       6   6   6
                       0   0   0
                       7   7   7
106      1     8       0   0   0   0   0   0   0   0
                       0   0   0   0   0   0   0   0
                       0   7   7   7   7   7   7   7
                       0   1   1   1   1   1   1   1
107      1     7       0   0   0   0   0   0   0
                       1   1   1   1   1   1   1
                       0   0   0   0   0   0   0
                       4   4   4   4   4   4   4
108      1     1       9
                      10
                       0
                       6
109      1    10       0   0   0   0   0   0   0   0   0   0
                       4   4   4   4   4   4   4   4   4   4
                       1   1   1   1   1   1   1   1   1   1
                       0   0   0   0   0   0   0   0   0   0
110      1     3       1   1   1
                       9   9   9
                       0   0   0
                       4   4   4
111      1     4      10  10  10  10
                       0   0   0   0
                       0   0   0   0
                       6   6   6   6
112      1     3       0   0   0
                       2   2   2
                       0   0   0
                       2   2   2
113      1     6       0   0   0   0   0   0
                       0   0   0   0   0   0
                       0   0   0   0   0   0
                      10  10  10  10  10  10
114      1     3       5   5   5
                       0   0   0
                       7   7   7
                       8   8   8
115      1     2       0   0
                      10  10
                       0   0
                       5   5
116      1     5       2   2   2   2   2
                       0   0   0   0   0
                      10  10  10  10  10
                       2   2   2   2   2
117      1     5       1   1   1   1   1
                       0   0   0   0   0
                       0   0   0   0   0
                       1   1   1   1   1
118      1     7       1   1   1   1   0   1   1
                       0   0   0   0   0   0   0
                       0   0   0   0   0   0   0
                       1   1   1   1   0   1   1
119      1     2       1   1
                       0   0
                       6   6
                       0   0
120      1    10       6   6   6   6   6   6   6   6   6   6
                       2   2   2   2   2   2   2   2   2   2
                       0   0   0   0   0   0   0   0   0   0
                       7   7   7   7   7   7   7   7   7   7
121      1     5       0   0   0   0   0
                      10  10  10  10  10
                       9   9   9   9   9
                      10  10  10  10  10
122      1     0    
************************************************************************
RESOURCEAVAILABILITIES:
  R 1  R 2  R 3  R 4

  21  21  21  21  21  21  21  21  21  21  21  21  21  21  21  21  21  21  21  21  21  21  21  21   0  21  21  21  21  21   0  21  21  21  21  21  21  21  21  21  21  21   0  21  21  21  21  21  21  21  21  21  21   0  21   0  21  21  21  21  21  21  21  21  21  21  21  21  21  21  21  21  21  21  21  21  21  21  21  21  21  21  21  21  21  21  21  21  21   0  21  21  21  21  21  21  21  21  21  21  21  21  21  21  21  21  21  21  21  21  21  21  21  21  21  21  21  21  21  21  21  21  21  21  21  21  21   0  21  21  21  21  21  21  21  21  21  21  21  21  21  21  21  21  21  21  21  21  21  21  21  21  21  21  21  21  21  21  21  21  21  21  21  21  21  21  21  21  21  21  21  21  21  21  21  21  21  21  21  21  21  21  21  21  21  21  21  21  21  21  21  21  21  21  21   0  21  21  21  21  21  21  21  21  21  21  21  21  21  21  21  21  21   0  21   0  21  21  21  21  21  21  21  21  21  21  21  21  21   0  21  21  21  21  21  21  21  21  21  21  21  21  21  21  21  21  21  21  21  21  21  21  21  21  21  21  21  21  21  21  21  21  21  21  21  21  21  21   0  21  21  21  21  21  21  21  21  21   0  21  21  21  21  21  21  21  21  21  21  21   0  21  21  21  21  21  21  21  21  21  21  21  21  21  21  21  21  21  21  21  21  21  21  21  21  21   0  21  21  21  21  21  21  21  21  21  21  21  21   0  21   0  21  21  21  21  21  21   0  21  21  21  21  21  21  21  21  21  21  21   0  21  21   0  21  21  21  21  21  21  21  21   0  21  21  21  21  21  21  21  21  21  21  21  21  21  21  21  21  21  21  21  21  21  21  21  21  21  21  21  21  21  21  21  21  21  21  21   0  21  21  21  21  21  21  21  21  21  21  21  21  21  21  21  21  21  21  21   0  21  21  21  21  21  21  21  21  21  21  21  21  21  21  21  21  21  21  21  21  21  21  21  21  21  21  21   0  21  21  21  21  21  21  21   0  21  21  21  21  21   0  21  21  21  21  21  21  21  21  21  21  21  21  21  21  21  21  21  21  21  21  21  21  21  21  21  21  21  21  21  21  21  21  21  21  21  21  21  21  21  21  21  21  21  21  21  21  21  21  21  21  21  21  21  21  21  21  21  21  21  21  21   0  21  21  21  21  21  21  21  21  21  21  21  21  21  21  21  21  21  21  21  21  21  21  21  21  21  21  21  21  21  21  21  21  21  21  21  21  21  21  21  21  21  21  21  21  21  21  21   0  21  21  21  21  21  21  21  21  21  21  21  21  21  21  21  21  21  21  21  21  21  21  21  21  21  21  21  21  21  21  21  21  21  21  21  21  21  21  21  21   0  21  21  21  21  21  21   0  21

  21  21  21  21  21  21  21  21  21  21  21  21  21  21  21  21  21  21  21  21  21  21  21  21   0  21  21  21  21  21   0  21  21  21  21  21  21  21  21  21  21  21   0  21  21  21  21  21  21  21  21  21  21   0  21   0  21  21  21  21  21  21  21  21  21  21  21  21  21  21  21  21  21  21  21  21  21  21  21  21  21  21  21  21  21  21  21  21  21   0  21  21  21  21  21  21  21  21  21  21  21  21  21  21  21  21  21  21  21  21  21  21  21  21  21  21  21  21  21  21  21  21  21  21  21  21  21   0  21  21  21  21  21  21  21  21  21  21  21  21  21  21  21  21  21  21  21  21  21  21  21  21  21  21  21  21  21  21  21  21  21  21  21  21  21  21  21  21  21  21  21  21  21  21  21  21  21  21  21  21  21  21  21  21  21  21  21  21  21  21  21  21  21  21  21   0  21  21  21  21  21  21  21  21  21  21  21  21  21  21  21  21  21   0  21   0  21  21  21  21  21  21  21  21  21  21  21  21  21   0  21  21  21  21  21  21  21  21  21  21  21  21  21  21  21  21  21  21  21  21  21  21  21  21  21  21  21  21  21  21  21  21  21  21  21  21  21  21   0  21  21  21  21  21  21  21  21  21   0  21  21  21  21  21  21  21  21  21  21  21   0  21  21  21  21  21  21  21  21  21  21  21  21  21  21  21  21  21  21  21  21  21  21  21  21  21   0  21  21  21  21  21  21  21  21  21  21  21  21   0  21   0  21  21  21  21  21  21   0  21  21  21  21  21  21  21  21  21  21  21   0  21  21   0  21  21  21  21  21  21  21  21   0  21  21  21  21  21  21  21  21  21  21  21  21  21  21  21  21  21  21  21  21  21  21  21  21  21  21  21  21  21  21  21  21  21  21  21   0  21  21  21  21  21  21  21  21  21  21  21  21  21  21  21  21  21  21  21   0  21  21  21  21  21  21  21  21  21  21  21  21  21  21  21  21  21  21  21  21  21  21  21  21  21  21  21   0  21  21  21  21  21  21  21   0  21  21  21  21  21   0  21  21  21  21  21  21  21  21  21  21  21  21  21  21  21  21  21  21  21  21  21  21  21  21  21  21  21  21  21  21  21  21  21  21  21  21  21  21  21  21  21  21  21  21  21  21  21  21  21  21  21  21  21  21  21  21  21  21  21  21  21   0  21  21  21  21  21  21  21  21  21  21  21  21  21  21  21  21  21  21  21  21  21  21  21  21  21  21  21  21  21  21  21  21  21  21  21  21  21  21  21  21  21  21  21  21  21  21  21   0  21  21  21  21  21  21  21  21  21  21  21  21  21  21  21  21  21  21  21  21  21  21  21  21  21  21  21  21  21  21  21  21  21  21  21  21  21  21  21  21   0  21  21  21  21  21  21   0  21

  32  32  32  32  32  32  32  32  32  32  32  32  32  32  32  32  32  32  32  32  32  32  32  32   0  32  32  32  32  32   0  32  32  32  32  32  32  32  32  32  32  32   0  32  32  32  32  32  32  32  32  32  32   0  32   0  32  32  32  32  32  32  32  32  32  32  32  32  32  32  32  32  32  32  32  32  32  32  32  32  32  32  32  32  32  32  32  32  32   0  32  32  32  32  32  32  32  32  32  32  32  32  32  32  32  32  32  32  32  32  32  32  32  32  32  32  32  32  32  32  32  32  32  32  32  32  32   0  32  32  32  32  32  32  32  32  32  32  32  32  32  32  32  32  32  32  32  32  32  32  32  32  32  32  32  32  32  32  32  32  32  32  32  32  32  32  32  32  32  32  32  32  32  32  32  32  32  32  32  32  32  32  32  32  32  32  32  32  32  32  32  32  32  32  32   0  32  32  32  32  32  32  32  32  32  32  32  32  32  32  32  32  32   0  32   0  32  32  32  32  32  32  32  32  32  32  32  32  32   0  32  32  32  32  32  32  32  32  32  32  32  32  32  32  32  32  32  32  32  32  32  32  32  32  32  32  32  32  32  32  32  32  32  32  32  32  32  32   0  32  32  32  32  32  32  32  32  32   0  32  32  32  32  32  32  32  32  32  32  32   0  32  32  32  32  32  32  32  32  32  32  32  32  32  32  32  32  32  32  32  32  32  32  32  32  32   0  32  32  32  32  32  32  32  32  32  32  32  32   0  32   0  32  32  32  32  32  32   0  32  32  32  32  32  32  32  32  32  32  32   0  32  32   0  32  32  32  32  32  32  32  32   0  32  32  32  32  32  32  32  32  32  32  32  32  32  32  32  32  32  32  32  32  32  32  32  32  32  32  32  32  32  32  32  32  32  32  32   0  32  32  32  32  32  32  32  32  32  32  32  32  32  32  32  32  32  32  32   0  32  32  32  32  32  32  32  32  32  32  32  32  32  32  32  32  32  32  32  32  32  32  32  32  32  32  32   0  32  32  32  32  32  32  32   0  32  32  32  32  32   0  32  32  32  32  32  32  32  32  32  32  32  32  32  32  32  32  32  32  32  32  32  32  32  32  32  32  32  32  32  32  32  32  32  32  32  32  32  32  32  32  32  32  32  32  32  32  32  32  32  32  32  32  32  32  32  32  32  32  32  32  32   0  32  32  32  32  32  32  32  32  32  32  32  32  32  32  32  32  32  32  32  32  32  32  32  32  32  32  32  32  32  32  32  32  32  32  32  32  32  32  32  32  32  32  32  32  32  32  32   0  32  32  32  32  32  32  32  32  32  32  32  32  32  32  32  32  32  32  32  32  32  32  32  32  32  32  32  32  32  32  32  32  32  32  32  32  32  32  32  32   0  32  32  32  32  32  32   0  32

  21  21  21  21  21  21  21  21  21  21  21  21  21  21  21  21  21  21  21  21  21  21  21  21   0  21  21  21  21  21   0  21  21  21  21  21  21  21  21  21  21  21   0  21  21  21  21  21  21  21  21  21  21   0  21   0  21  21  21  21  21  21  21  21  21  21  21  21  21  21  21  21  21  21  21  21  21  21  21  21  21  21  21  21  21  21  21  21  21   0  21  21  21  21  21  21  21  21  21  21  21  21  21  21  21  21  21  21  21  21  21  21  21  21  21  21  21  21  21  21  21  21  21  21  21  21  21   0  21  21  21  21  21  21  21  21  21  21  21  21  21  21  21  21  21  21  21  21  21  21  21  21  21  21  21  21  21  21  21  21  21  21  21  21  21  21  21  21  21  21  21  21  21  21  21  21  21  21  21  21  21  21  21  21  21  21  21  21  21  21  21  21  21  21  21   0  21  21  21  21  21  21  21  21  21  21  21  21  21  21  21  21  21   0  21   0  21  21  21  21  21  21  21  21  21  21  21  21  21   0  21  21  21  21  21  21  21  21  21  21  21  21  21  21  21  21  21  21  21  21  21  21  21  21  21  21  21  21  21  21  21  21  21  21  21  21  21  21   0  21  21  21  21  21  21  21  21  21   0  21  21  21  21  21  21  21  21  21  21  21   0  21  21  21  21  21  21  21  21  21  21  21  21  21  21  21  21  21  21  21  21  21  21  21  21  21   0  21  21  21  21  21  21  21  21  21  21  21  21   0  21   0  21  21  21  21  21  21   0  21  21  21  21  21  21  21  21  21  21  21   0  21  21   0  21  21  21  21  21  21  21  21   0  21  21  21  21  21  21  21  21  21  21  21  21  21  21  21  21  21  21  21  21  21  21  21  21  21  21  21  21  21  21  21  21  21  21  21   0  21  21  21  21  21  21  21  21  21  21  21  21  21  21  21  21  21  21  21   0  21  21  21  21  21  21  21  21  21  21  21  21  21  21  21  21  21  21  21  21  21  21  21  21  21  21  21   0  21  21  21  21  21  21  21   0  21  21  21  21  21   0  21  21  21  21  21  21  21  21  21  21  21  21  21  21  21  21  21  21  21  21  21  21  21  21  21  21  21  21  21  21  21  21  21  21  21  21  21  21  21  21  21  21  21  21  21  21  21  21  21  21  21  21  21  21  21  21  21  21  21  21  21   0  21  21  21  21  21  21  21  21  21  21  21  21  21  21  21  21  21  21  21  21  21  21  21  21  21  21  21  21  21  21  21  21  21  21  21  21  21  21  21  21  21  21  21  21  21  21  21   0  21  21  21  21  21  21  21  21  21  21  21  21  21  21  21  21  21  21  21  21  21  21  21  21  21  21  21  21  21  21  21  21  21  21  21  21  21  21  21  21   0  21  21  21  21  21  21   0  21

************************************************************************
